HUN,8,6,507
5,23,2,29,3,29,1,21,0,25,4,28
4,28,1,24,0,21,3,26,2,27,5,27
1,26,2,22,4,21,3,26,0,26,5,28
5,26,3,28,4,28,2,28,0,28,1,22
2,25,5,22,0,24,4,28,1,28,3,25
0,23,4,28,1,25,5,28,3,29,2,27
5,21,3,30,4,24,0,27,2,22,1,30
4,23,3,22,5,21,2,22,0,27,1,30
